100 8
896 801
525 832
840 302
452 843
474 107
631 872
765 758
401 760
738 410
465 534
223 204
742 919
880 625
386 148
809 600
787 748
913 474
851 872
569 151
740 619
397 617
747 785
490 539
905 360
742 749
566 509
840 796
604 548
457 232
729 962
908 845
851 734
637 901
843 365
603 170
526 460
520 467
549 374
230 281
428 256
260 217
645 895
635 411
810 401
843 263
818 596
846 304
704 763
674 688
908 365
830 348
755 837
883 342
403 700
621 378
128 793
430 235
426 137
197 223
373 155
99 712
367 814
175 700
585 371
103 768
953 732
469 257
725 667
510 748
691 788
821 431
501 540
795 877
379 199
837 250
575 841
51 759
514 738
19 667
614 95
844 904
831 713
775 212
408 187
674 639
753 322
200 223
592 847
899 496
604 703
735 464
747 650
655 349
732 525
710 838
923 314
41 751
862 204
537 475
578 843
